GLPSOL: GLPK LP/MIP Solver, v4.55
Parameter(s) specified in the command line:
 -m tmp.mod
Reading model section from tmp.mod...
Reading data section from tmp.mod...
7607 lines were read
Generating obj...
Generating kirhoff...
Generating init_charge...
Generating batt_size...
Model has been successfully generated
GLPK Simplex Optimizer, v4.55
8912 rows, 13664 columns, 28014 non-zeros
Preprocessing...
6442 rows, 13491 columns, 27745 non-zeros
Scaling...
 A: min|aij| =  1.000e+00  max|aij| =  1.000e+00  ratio =  1.000e+00
Problem data seem to be well scaled
Constructing initial basis...
Size of triangular part is 5085
      0: obj =   0.000000000e+00  infeas =  7.267e+03 (1357)
    500: obj =   6.000000000e+01  infeas =  4.697e+03 (1117)
   1000: obj =   1.420000000e+02  infeas =  2.741e+03 (924)
   1500: obj =   2.590000000e+02  infeas =  1.554e+03 (810)
   2000: obj =   3.280000000e+02  infeas =  4.400e+02 (732)
*  2389: obj =   3.680000000e+02  infeas =  0.000e+00 (690)
*  2500: obj =   2.670000000e+02  infeas =  6.106e-15 (682)
*  2934: obj =   4.500000000e+01  infeas =  0.000e+00 (643)
OPTIMAL LP SOLUTION FOUND
Time used:   1.4 secs
Memory used: 27.1 Mb (28399555 bytes)
#OUTPUT:
45
-19 -14 -5 -10 0 -6 -4 0 0 0 0 -4 0 -12 0 0 -5 0 0 0 0 0 0 0 0 0 0 0 0 -51 0 2 0 -5 0 0 0 0 6 0 0 0 0 0 0 0 0 0 0 0 0 0 0 0 0 0 0 0 0 0 0 0 0 2 -8 0 0 0 0 0 2 0 0 0 0 0 0 0 0 0 2 0 0 0 0 0 0 0 0 0 0 0 0 0 0 0 0 0 0 0 21 0 0 0 0 0 0 0 0 0 0 0 0 0 0 0 0 0 0 0 0 0 0 5 0 0 21 0 7 0 0 0 0 0 0 0 0 0 0 2 49 0 0 0 0 0 0 0 0 2 0 0 0 0 0 0 0 0 2 0 0 0 0 0 0 0 0 0 0 0 0 0 0 0 0 8 0 0 0 0 0 7 2 0 0 0 0 -5 0 0 0 0 0 0 0 0 0 0 0 0 0 0 0 0 0 0 0 0 0 0 0 0 0 0 0 0 0 0 0 0 0 0 0 0 0 0 0 0 -4 0 0 0 49 0 0 0 0 0 0 0 0 0 0 0 0 0 0 0 0 0 0 0 0 0 0 0 7 0 0 0 0 5 0 0 0 0 0 0 0 0 0 0 0 0 0 0 0 0 0 0 0 0 0 0 0 0 0 0 0 0 0 0 12 0 0 0 0 0 0 0 0 0 0 0 2 0 0 0 0 0 0 0 0 0 0 0 0 0 0 0 0 0 0 0 0 0 0 0 0 0 -12 0 0 0 0 0 0 49 0 0 2 0 0 0 0 0 0 0 0 0 0 0 4 0 0 0 0 -2 -21 21 0 0 0 0 0 0 0 0 0 0 0 0 4 0 0 0 0 0 0 0 0 0 0 6 -6 0 0 -5 0 0 0 0 0 0 -8 7 0 0 0 -12 0 0 -18 0 -51 49 0 0 0 0 0 0 12 0 0 0 0 0 0 0 0 0 0 0 0 0 0 0 0 0 0 0 0 0 0 0 0 0 0 0 0 0 0 0 0 0 0 0 0 0 0 0 0 0 0 0 0 0 0 0 0 0 0 0 0 0 0 0 
-36 -33 -3 -10 -22 -8 -8 0 -43 -6 -16 -4 -15 -15 -15 0 0 -15 23 0 0 -5 0 0 0 11 0 0 0 -57 0 0 0 0 -15 0 11 0 -9 0 0 0 0 0 0 0 -3 0 0 0 12 0 -8 0 0 0 0 11 0 0 0 0 -5 0 -8 0 0 0 -27 12 0 0 0 -9 11 0 -3 0 0 0 0 0 -8 0 0 0 0 -35 0 0 0 0 0 0 0 0 -11 0 0 0 0 0 0 15 16 0 0 -11 0 0 0 0 0 0 0 0 0 0 0 0 0 0 5 0 0 0 0 0 -7 0 0 0 0 0 0 0 0 -6 0 0 16 0 0 0 0 0 0 0 0 0 0 0 0 0 0 0 0 8 0 15 0 -6 0 0 0 0 0 0 0 0 0 0 0 0 -39 0 0 0 0 0 11 -7 0 0 0 0 0 0 0 0 0 0 0 0 11 0 0 0 0 0 0 0 0 0 0 0 0 0 0 0 0 0 0 0 0 0 0 0 2 0 0 0 0 0 0 0 0 0 -4 0 -8 0 52 0 32 0 0 0 0 0 0 0 0 0 0 0 0 0 0 -27 0 0 0 0 0 0 -7 0 0 0 0 0 11 0 0 0 0 0 0 0 35 0 0 -58 8 0 0 0 0 0 0 0 0 0 0 0 0 0 0 0 0 0 16 -35 0 0 0 0 0 0 0 6 0 0 5 0 0 0 0 0 0 0 0 0 0 0 0 0 0 -8 0 0 0 0 0 0 0 0 0 0 -48 0 0 0 0 0 19 0 11 0 0 0 0 0 21 0 0 0 0 -15 6 0 16 0 0 0 0 0 -11 0 11 0 0 0 0 0 0 0 0 0 0 0 4 0 0 0 0 0 0 -15 40 2 0 0 0 0 0 0 0 0 0 0 -35 0 -8 -7 -11 11 0 -16 35 0 -6 0 -57 52 0 0 8 0 0 0 48 0 0 0 0 0 0 0 0 0 0 0 0 0 0 0 0 0 0 0 0 0 0 0 0 0 0 0 0 0 0 0 0 0 0 0 0 0 0 0 0 0 0 0 0 0 0 0 0 0 0 0 0 0 0 0 
-26 0 -5 6 -41 -6 -15 -2 -11 6 -6 0 -15 0 0 -21 -5 0 0 0 0 0 0 0 0 0 0 0 -22 -21 0 0 0 -5 0 0 0 0 0 0 0 -21 0 0 0 0 0 0 0 0 0 0 0 0 -33 0 77 0 0 0 0 0 0 0 0 0 0 0 -5 0 0 0 0 0 0 11 0 -33 0 0 0 0 0 0 0 0 0 -12 0 0 0 0 0 0 0 0 0 0 0 -67 0 0 0 0 0 0 0 0 0 0 0 0 0 0 0 0 0 0 0 0 0 2 0 5 0 0 15 0 0 0 0 0 0 0 0 0 0 0 0 2 34 0 0 0 0 0 0 0 0 2 0 0 0 0 0 0 0 0 0 0 0 0 0 0 0 0 0 -6 0 0 0 0 0 0 0 0 0 -67 0 -77 0 0 2 0 0 0 0 -5 0 0 0 0 0 0 0 0 0 0 0 0 0 0 0 0 0 0 0 0 0 0 0 0 0 0 0 0 0 0 0 0 0 0 0 0 0 0 0 0 0 0 0 0 21 -30 12 0 0 0 0 0 0 -2 -2 0 0 0 0 0 0 -5 0 0 0 0 0 0 0 0 0 0 0 5 0 0 0 0 0 0 0 0 12 0 0 -1 0 0 0 0 0 0 0 0 0 0 0 0 0 0 0 0 0 0 0 -1 0 0 0 0 0 0 0 0 0 0 0 0 0 0 0 0 0 0 0 0 0 0 0 0 0 0 0 0 0 0 0 0 0 0 0 0 -12 0 0 0 0 0 0 34 0 0 0 0 0 0 -28 0 0 0 -15 -15 0 6 0 0 67 0 77 -2 -15 15 0 0 0 0 0 0 0 0 0 0 0 0 0 30 0 2 0 0 0 5 0 0 0 0 0 0 0 -5 0 0 0 0 -12 0 0 0 0 0 0 0 1 0 0 0 -21 21 0 0 0 0 0 0 12 0 0 0 0 0 0 0 0 0 0 0 0 0 0 0 0 0 0 0 0 0 0 0 0 0 0 0 0 0 0 0 0 0 0 0 0 0 0 0 0 0 0 0 0 0 0 0 0 0 0 0 0 0 0 0 
-77 -62 -15 -10 -77 -13 -11 -5 -55 0 -29 8 -15 14 -27 0 -15 -1 -23 0 0 -5 0 0 0 0 0 0 -15 -3 0 -12 -2 1 0 -10 0 -2 8 0 0 0 -2 -10 -1 -36 0 -2 0 0 2 0 -17 0 -3 0 3 0 0 0 0 0 6 0 8 0 0 0 -28 45 3 0 6 9 -4 8 5 0 0 -2 3 0 8 0 6 0 0 -25 0 0 0 0 0 -1 0 0 -35 0 0 0 6 0 0 40 0 0 0 -66 0 0 0 0 0 0 0 0 0 0 0 0 0 0 0 -1 0 0 16 6 -7 0 1 0 0 0 0 0 0 0 0 2 0 0 0 0 0 0 0 0 0 2 0 -3 0 0 22 0 0 -8 0 40 0 0 0 0 0 0 5 -6 0 0 0 0 0 0 0 0 1 0 -1 -3 -4 -7 2 0 0 0 0 1 0 0 -5 0 0 0 0 -16 0 0 0 0 22 0 0 0 0 0 0 0 -2 0 0 0 0 0 0 0 0 0 28 0 0 0 0 0 0 -6 26 0 0 0 8 0 0 15 25 1 0 -5 0 0 0 0 0 0 0 0 0 0 0 -28 0 0 0 0 0 0 -7 0 0 0 0 -1 -4 0 -26 0 0 0 0 0 25 0 0 0 -8 0 0 0 0 -16 0 0 0 0 0 0 0 0 0 0 0 0 6 -17 0 15 6 0 0 0 0 0 15 0 3 0 0 0 0 0 0 0 0 0 0 0 0 0 0 8 0 0 0 0 0 0 0 0 0 0 -31 0 0 0 0 2 -10 0 67 0 3 0 0 0 -15 0 -3 0 -10 -15 0 6 6 0 0 3 3 -2 -43 21 0 0 0 2 -1 0 0 0 10 -4 0 0 0 -15 5 0 0 0 0 0 0 28 0 0 0 -1 1 1 0 0 0 26 -25 0 8 -7 20 -4 0 -6 17 -6 0 -15 -3 0 0 0 -8 0 0 0 31 0 0 0 0 0 0 0 0 0 0 0 0 0 0 0 0 0 0 0 0 0 0 0 0 0 0 0 0 0 0 0 0 0 0 0 0 0 0 0 0 0 0 0 0 0 0 0 0 0 0 0 0 0 0 0 
-20 -9 0 -9 -47 0 0 -5 -14 2 -14 0 -10 -11 0 -11 0 0 -8 0 0 -5 0 0 0 -12 0 0 -10 -14 0 0 0 0 0 0 0 0 0 0 0 -11 0 0 0 0 0 0 0 0 4 0 0 0 -11 0 0 0 0 0 0 0 0 0 0 0 0 0 0 0 0 0 0 0 10 0 5 0 0 0 0 0 0 0 0 0 0 0 0 0 0 0 0 0 0 0 -11 0 0 -57 0 0 0 -5 0 0 0 -11 0 0 0 0 0 0 0 0 0 0 0 0 0 0 0 0 0 0 0 0 0 0 0 0 0 0 0 0 0 0 0 0 57 0 0 0 0 0 -57 0 0 0 0 0 0 -57 0 0 0 0 0 -5 0 -1 0 0 0 0 0 -6 0 0 0 0 0 0 0 0 0 0 0 0 11 0 0 0 0 0 0 0 -1 0 0 -12 0 0 0 0 0 0 0 0 0 0 0 0 0 0 0 0 5 0 0 0 0 0 0 0 0 0 0 0 -11 0 0 0 0 -4 0 0 0 0 0 0 14 10 0 0 0 0 0 0 -23 0 0 0 0 0 0 0 0 0 0 0 0 0 0 0 0 0 0 0 0 0 11 0 0 0 0 0 0 0 0 0 0 -1 0 0 0 0 0 0 0 0 -77 0 0 0 0 0 0 0 0 0 0 0 0 0 0 0 0 0 0 11 0 0 0 0 0 0 0 0 0 0 0 0 0 0 0 0 -1 0 0 0 11 0 0 0 0 0 0 0 0 0 0 0 0 0 0 57 11 0 0 0 0 0 -28 0 0 0 0 15 1 6 0 0 0 -5 0 0 0 0 0 0 0 -5 0 0 0 0 0 4 0 0 0 -10 0 0 0 0 0 0 0 0 0 0 0 0 0 0 0 0 0 0 0 0 0 0 -11 11 0 0 0 0 -11 0 -14 14 0 1 0 -11 0 0 0 0 0 0 0 0 0 0 0 0 0 0 0 0 0 0 0 0 0 0 0 0 0 0 0 0 0 0 0 0 0 0 0 0 0 0 0 0 0 0 0 0 0 0 0 0 0 0 0 0 0 0 0 0 0 0 
-20 -31 -10 -10 -41 -11 0 -10 -25 4 -6 0 0 0 -6 21 -4 -5 0 0 0 -4 -6 -5 0 0 0 0 0 0 0 -4 -4 0 0 0 0 -6 0 0 0 21 -6 26 0 26 0 -10 0 0 0 5 0 0 -18 0 39 0 0 0 0 0 19 0 0 0 0 0 0 5 0 0 0 0 0 0 5 -15 0 -6 0 0 0 0 0 0 0 0 0 0 0 0 0 0 0 0 0 0 0 -15 0 0 0 0 0 -28 0 -26 0 0 0 0 0 0 -10 0 0 4 0 0 0 0 -6 0 0 0 0 0 0 0 0 0 0 0 0 0 0 0 0 0 0 0 0 0 0 0 -11 0 0 0 0 -3 6 -11 22 0 0 0 0 0 0 0 0 0 0 0 5 -6 0 0 0 0 4 0 0 6 0 -4 -1 -39 0 0 0 31 0 0 -6 0 0 31 -5 0 0 0 0 -4 0 0 0 0 22 0 0 0 0 0 0 0 -5 -10 0 0 0 0 0 0 0 0 0 0 0 0 0 0 0 -2 0 0 0 1 0 0 0 0 0 0 0 -5 0 0 0 0 0 0 0 0 0 0 0 0 -60 0 0 0 0 0 0 0 0 5 0 0 0 0 0 0 1 0 0 -1 0 0 0 0 0 0 0 0 0 5 0 0 0 0 0 0 0 0 0 0 0 0 10 0 0 0 0 0 0 0 0 0 0 -29 0 0 0 0 0 0 0 0 0 0 0 0 0 0 0 0 0 0 0 -1 0 0 0 0 0 0 -10 0 0 0 0 -19 -14 0 26 0 0 4 -6 0 0 0 3 -6 0 0 0 6 4 0 4 6 39 0 -27 5 0 0 0 5 0 0 0 0 -14 -4 -6 31 0 0 5 0 0 0 0 0 0 0 0 1 -6 0 0 0 -26 -9 0 0 0 0 0 0 -5 0 0 -10 0 0 0 0 0 0 0 0 0 0 1 0 10 0 0 0 0 0 0 0 0 0 0 0 0 0 0 0 0 0 0 0 0 0 0 0 0 0 0 0 0 0 0 0 0 0 0 0 0 0 0 0 0 0 0 0 0 0 0 0 0 0 0 0 0 0 0 0 
-47 -3 -44 0 -72 0 -11 -5 -20 -9 -20 0 0 -11 -4 0 0 -4 0 0 0 -5 0 0 0 0 0 0 0 0 0 1 0 0 -4 1 0 0 0 0 0 0 0 -15 0 74 0 0 0 0 0 0 0 0 -35 0 35 0 0 0 0 0 0 0 0 0 0 0 0 5 0 0 0 6 -11 48 5 -32 0 0 0 0 0 0 0 0 0 -48 0 0 0 0 0 0 0 0 0 0 0 -72 -8 0 0 0 -4 0 0 -66 0 0 0 0 0 0 0 0 0 0 0 0 0 0 0 0 0 0 0 0 0 0 8 0 0 0 0 0 0 -6 0 -2 36 0 0 0 0 0 -72 0 0 -2 0 -3 0 22 0 0 0 0 0 0 0 -6 0 0 0 0 5 -5 0 0 0 0 0 0 -15 0 8 0 0 -35 -11 0 -2 0 0 0 0 0 0 0 -5 0 0 0 0 0 0 0 0 0 0 0 0 0 0 0 0 0 5 0 0 0 0 0 0 0 0 0 15 0 0 0 0 0 0 0 0 0 0 0 0 0 0 0 48 0 -19 -5 0 0 0 0 0 0 0 0 0 0 0 0 0 0 0 0 0 0 0 0 0 6 0 0 -11 0 0 0 0 0 0 0 48 0 0 0 0 0 0 0 0 16 0 0 0 0 0 0 0 0 0 0 0 0 4 0 0 0 0 0 0 0 0 11 0 0 0 0 0 0 0 0 0 0 0 0 -19 0 0 0 0 0 0 0 0 0 0 0 0 0 0 0 -52 0 0 0 0 0 20 40 74 0 0 0 0 0 -28 0 3 0 -8 8 6 5 4 -8 0 -5 35 -69 -5 5 0 0 0 -5 0 0 0 0 10 -4 0 0 0 0 5 0 0 0 0 0 -15 15 0 -6 0 0 0 0 16 -16 0 0 -48 0 0 0 -5 -11 -19 -4 0 0 -11 19 0 0 19 0 0 0 0 0 52 0 0 0 0 0 0 0 0 0 0 0 0 0 0 0 0 0 0 0 0 0 0 0 0 0 0 0 0 0 0 0 0 0 0 0 0 0 0 0 0 0 0 0 0 0 0 0 0 0 0 0 0 0 0 0 
17 17 0 0 -69 13 -7 -5 -39 0 0 4 -11 0 0 0 0 0 0 0 0 -5 0 0 0 0 0 -1 -11 0 0 4 4 0 0 0 0 0 0 0 0 0 0 0 0 0 0 4 0 0 0 0 0 0 -3 0 3 0 0 0 0 0 -5 0 0 0 0 0 -19 -24 0 0 0 0 0 3 -5 0 0 0 0 0 0 0 0 0 0 0 0 0 0 0 0 0 0 0 0 0 0 0 0 0 0 -19 0 0 0 0 0 0 0 0 0 0 0 0 0 0 0 0 -1 0 0 0 0 0 0 0 3 0 0 0 0 0 0 0 0 -5 0 2 0 0 0 0 0 0 0 0 0 2 0 -3 0 0 0 0 0 0 0 -19 0 -6 0 0 0 0 0 0 0 0 0 0 0 0 0 0 0 0 0 -3 0 3 2 -25 0 0 0 0 0 -25 0 0 0 0 0 0 0 0 0 0 0 0 0 0 0 0 0 0 0 0 -1 0 0 0 0 0 0 0 19 0 0 0 0 0 0 5 0 0 -4 0 0 0 0 -34 0 0 -10 0 0 0 0 0 0 0 0 0 0 0 0 -19 0 0 0 0 0 0 3 0 0 0 0 0 0 0 0 0 0 0 0 0 0 0 1 -3 0 0 0 0 0 0 0 0 0 0 0 0 0 0 0 0 10 0 0 3 0 0 0 0 0 0 0 0 0 0 0 0 0 0 0 0 0 0 0 0 0 0 0 0 0 0 0 0 0 0 0 0 0 0 0 0 0 0 0 0 0 -19 0 0 1 1 0 0 0 0 -15 0 3 0 0 -15 6 0 0 0 0 0 3 -2 0 0 0 0 0 0 0 0 0 0 16 4 0 -25 4 -11 0 0 0 0 0 0 0 19 0 0 0 0 0 0 0 0 0 0 0 -1 0 3 0 0 -10 0 -3 0 0 0 0 0 0 0 0 0 0 0 0 0 0 0 0 0 0 0 0 0 0 0 0 0 0 0 0 0 0 0 0 0 0 0 0 0 0 0 0 0 0 0 0 0 0 0 0 0 0 0 0 0 0 0 0 0 0 0 0 0 0 0 0 0 0 0 
0 0 0 0 -45 3 0 0 -20 0 -20 0 0 0 -3 0 0 13 0 0 0 0 0 -3 0 0 0 0 0 0 0 0 0 0 16 0 0 -6 0 0 0 0 4 0 0 10 0 0 0 0 0 -3 0 0 0 0 0 0 0 0 0 0 0 0 0 0 0 0 0 -20 0 0 0 0 0 0 -5 3 0 4 0 0 0 0 0 0 0 0 0 0 0 0 0 0 0 0 0 0 0 0 15 0 0 -15 16 0 0 -10 0 0 0 0 0 0 0 0 0 0 0 0 0 0 0 0 0 0 0 0 0 0 0 0 0 0 0 0 0 0 0 0 19 0 0 0 0 0 0 0 0 0 0 -3 0 0 4 0 0 0 0 -15 0 0 0 0 0 0 0 0 0 0 0 0 0 0 -20 0 0 0 0 0 0 0 0 0 0 0 0 0 0 0 0 0 0 0 0 0 0 0 0 0 4 0 0 0 0 0 0 0 0 0 0 0 0 0 0 0 0 0 20 0 0 0 0 0 0 0 -10 0 0 -3 0 0 0 0 0 0 0 0 0 0 0 0 0 0 0 0 0 0 0 0 0 0 0 0 0 0 0 0 0 0 0 0 0 0 10 0 -3 0 0 -26 0 0 0 0 0 0 0 0 0 0 0 0 0 0 0 0 0 0 0 0 0 0 0 0 0 0 0 0 0 0 0 0 0 0 0 0 0 0 0 0 0 0 0 -10 0 0 0 0 0 0 0 0 0 3 0 0 0 0 0 0 0 0 0 0 0 0 0 3 10 0 0 0 0 0 -19 0 3 0 15 0 0 0 0 0 0 0 0 0 -4 0 0 0 0 0 0 0 0 0 0 0 0 0 0 0 0 0 0 0 0 0 -20 20 0 0 0 0 0 0 0 0 0 -10 0 0 0 0 0 0 0 0 0 0 0 0 0 0 0 0 0 0 -3 0 0 0 0 0 0 0 0 0 0 0 0 0 0 0 0 0 0 0 0 0 0 0 0 0 0 0 0 0 0 0 0 0 0 0 0 0 0 0 0 0 0 0 0 0 0 0 0 0 0 0 0 0 0 0 0 0 
-59 -54 -5 -10 0 -8 0 0 0 0 0 0 0 0 -36 0 -5 0 0 0 0 0 0 0 0 0 0 0 0 -4 0 0 0 -5 0 0 0 0 0 0 0 0 0 0 0 26 0 0 0 0 0 0 0 0 0 0 0 0 0 0 0 0 0 0 0 0 0 0 0 -14 4 0 0 0 0 -6 -5 0 0 0 4 0 0 0 0 0 0 0 0 0 0 0 0 0 0 0 0 0 0 0 30 0 0 -9 0 0 0 -26 0 0 0 0 0 0 0 0 0 0 0 0 0 0 0 5 0 0 21 0 -80 0 0 0 0 0 0 0 0 0 0 2 0 0 0 0 0 0 0 0 0 2 0 0 0 0 0 0 0 0 0 -9 0 0 0 0 0 0 0 0 0 0 0 0 0 0 0 0 0 0 0 0 0 7 2 0 0 0 0 -5 0 0 0 0 0 0 5 0 0 0 0 0 0 0 0 0 0 0 0 0 0 0 0 0 0 0 0 0 0 0 0 0 0 0 0 0 0 0 -26 0 0 0 0 0 0 0 0 0 0 0 0 0 0 0 0 0 0 0 0 0 0 0 0 0 0 0 0 0 7 0 0 0 0 5 0 0 -36 0 0 0 0 0 0 0 0 -6 0 0 0 0 0 0 0 0 0 0 0 0 0 0 0 0 0 0 0 -6 0 0 0 0 0 0 0 0 0 0 4 0 0 0 0 0 0 0 0 0 0 0 0 0 0 0 -5 0 0 0 0 0 0 0 0 0 0 0 0 0 0 0 -14 0 26 0 4 0 0 0 0 0 0 0 9 0 0 0 0 0 0 0 0 -2 -26 21 5 0 0 0 0 0 0 0 0 0 0 0 0 0 0 0 0 0 0 0 0 0 0 0 0 0 0 -5 0 0 0 -26 0 0 0 7 0 0 0 0 6 0 0 0 -4 0 0 0 0 0 0 0 0 0 0 0 0 0 0 0 0 0 0 0 0 0 0 0 0 0 0 0 0 0 0 0 0 0 0 0 0 0 0 0 0 0 0 0 0 0 0 0 0 0 0 0 0 0 0 0 0 0 0 0 0 0 0 0 
0 0 0 0 -5 0 0 0 0 0 0 0 0 0 0 0 0 0 0 0 0 0 0 0 0 0 0 0 0 0 0 0 0 0 0 0 0 0 0 0 0 0 0 0 0 0 0 0 0 0 0 0 0 0 0 0 0 0 0 0 0 0 0 0 0 0 0 0 0 0 0 0 0 0 0 0 0 0 0 0 0 0 0 0 0 0 0 0 0 0 0 0 0 0 0 0 0 0 0 -5 0 0 0 0 0 0 0 0 0 0 0 0 0 0 0 0 0 0 0 0 0 0 0 0 0 0 0 0 0 0 0 0 0 0 0 0 0 0 0 0 5 0 0 0 0 0 -5 0 0 0 0 0 0 -5 0 0 0 0 0 0 0 0 0 0 0 0 0 0 0 0 0 0 0 0 0 0 0 0 0 0 0 0 0 0 0 0 0 0 0 0 0 0 0 0 0 0 0 0 0 0 0 0 0 0 0 0 0 0 0 0 0 0 0 0 0 0 0 0 0 0 0 0 0 0 0 0 0 0 0 0 0 0 0 0 0 0 0 0 0 0 0 0 0 0 0 0 0 0 0 0 0 0 0 0 0 0 0 0 0 0 0 0 0 0 0 0 0 0 0 0 0 0 0 0 0 0 0 0 0 0 0 0 0 0 0 0 0 0 0 0 0 0 0 0 0 0 0 0 0 0 0 0 0 0 0 0 0 0 0 0 0 0 0 0 0 0 0 0 0 0 0 0 0 0 0 0 0 0 0 0 0 0 0 0 0 0 0 5 0 0 0 0 0 0 -5 0 0 0 0 0 0 0 0 0 0 0 0 0 0 0 0 0 0 0 0 0 0 0 0 0 0 0 0 0 0 0 0 0 0 0 0 0 0 0 0 0 0 0 0 0 0 0 0 0 0 0 0 0 0 0 0 0 0 0 0 0 0 0 0 0 0 0 0 0 0 0 0 0 0 0 0 0 0 0 0 0 0 0 0 0 0 0 0 0 0 0 0 0 0 0 0 0 0 0 0 0 0 0 0 0 0 0 0 0 0 0 0 0 0 0 0 0 0 0 0 0 0 0 
-49 -44 -5 -8 0 -4 0 0 0 0 0 0 0 0 0 0 -5 0 -12 0 0 0 0 0 0 0 0 0 7 -23 0 -32 0 -5 0 0 0 0 0 0 0 0 0 0 0 0 0 0 0 0 -12 0 -8 -32 0 0 0 0 0 0 0 0 -5 0 0 0 0 8 0 0 0 0 0 0 0 0 0 0 0 0 0 0 0 0 0 0 8 0 0 0 0 0 0 0 0 0 0 0 0 0 14 0 0 0 0 0 0 0 0 0 0 -56 0 0 0 0 0 0 0 0 0 0 0 5 0 0 21 0 0 0 0 0 0 0 0 0 0 0 0 0 0 0 0 0 0 0 0 -16 0 0 0 0 0 0 0 0 0 0 0 0 0 0 0 0 0 0 0 0 0 0 0 0 0 0 12 0 0 0 0 0 0 0 0 0 0 0 0 -5 0 0 0 0 0 0 0 0 0 0 0 0 0 0 0 0 0 0 0 0 -5 0 0 0 0 0 0 -8 0 0 -5 0 0 0 0 0 0 0 0 0 0 0 0 0 23 -7 0 0 0 0 0 0 0 0 0 0 0 0 0 0 0 0 0 0 0 0 0 0 0 0 0 0 0 5 0 0 0 0 0 0 0 0 0 0 0 0 0 0 0 0 0 0 0 0 0 0 0 0 0 0 0 0 0 0 0 0 0 0 0 0 0 0 0 0 0 0 0 0 0 0 0 0 0 0 0 0 0 0 0 0 0 0 0 0 0 0 0 0 0 0 0 0 0 0 0 0 0 0 0 0 0 0 0 0 0 0 0 16 0 0 -7 0 0 0 0 0 0 5 0 0 -21 21 0 0 0 5 0 8 0 0 -4 4 0 0 0 7 0 0 0 0 0 -7 12 -5 0 0 0 0 0 -5 0 0 0 0 0 0 0 0 0 0 0 0 0 0 0 0 -23 23 0 0 0 0 0 0 0 0 0 0 0 0 0 0 0 0 0 0 0 0 0 0 0 0 0 0 0 0 0 0 0 0 0 0 0 0 0 0 0 0 0 0 0 0 0 0 0 0 0 0 0 0 0 0 0 0 0 0 0 0 0 0 
-4 -4 0 0 -57 -4 0 0 -41 0 -10 4 -15 0 0 0 -1 0 0 0 0 0 1 0 1 0 0 0 -56 0 0 0 0 0 0 -10 0 0 0 0 0 0 0 0 0 0 0 0 0 0 0 0 0 0 0 0 0 0 0 0 0 0 0 0 0 0 0 0 -31 0 0 0 0 0 11 0 4 0 0 0 0 0 0 0 0 0 0 0 0 0 0 0 0 0 1 0 -33 0 0 0 -15 0 0 -4 0 0 0 -33 0 0 0 0 0 0 0 -38 0 0 0 0 0 0 0 0 0 0 0 0 0 0 0 0 0 0 0 0 0 0 0 0 0 0 0 0 0 0 0 0 0 0 0 0 0 0 0 0 0 0 0 -4 0 0 0 0 0 0 5 0 0 0 0 0 0 0 -10 0 0 0 0 0 11 0 0 0 0 0 0 0 0 0 -5 0 0 0 0 -1 0 0 0 0 10 0 0 0 0 0 0 0 0 0 0 0 0 0 0 0 0 0 0 0 0 0 0 0 0 0 0 0 -4 0 0 0 0 -34 0 0 -1 -5 0 0 0 0 0 0 0 10 0 0 0 -31 0 0 -1 0 0 0 0 0 0 0 0 0 11 0 0 0 0 0 0 0 0 0 0 0 0 0 0 0 0 -11 0 0 0 0 0 0 0 0 0 0 0 0 0 0 0 0 0 0 0 0 0 0 0 0 0 0 0 0 0 0 0 0 0 0 0 0 0 0 0 0 0 0 0 0 0 0 0 0 0 0 0 0 0 0 0 0 0 0 33 0 0 0 0 0 -15 0 0 0 -15 -15 0 0 0 0 0 0 0 0 -15 5 0 0 0 0 0 0 0 0 -4 4 0 0 4 34 5 0 0 -10 0 41 -10 0 1 0 0 0 0 0 -10 10 0 0 0 0 0 0 0 11 0 0 0 0 0 0 0 0 0 0 0 0 0 0 0 0 0 0 0 0 0 0 0 0 0 0 0 0 0 0 0 0 0 0 0 0 0 0 0 0 0 0 0 0 0 0 0 0 0 0 0 0 0 0 0 0 0 0 0 0 0 0 0 0 0 0 0 0 0 0 
-38 -36 0 -9 -2 -13 -14 -2 0 -8 0 0 -14 -1 -14 -2 0 -14 4 0 0 0 0 0 0 0 0 0 0 0 0 0 0 0 0 0 0 0 0 0 0 -2 0 0 -14 0 2 0 0 0 4 0 0 0 -2 0 0 0 0 0 0 0 0 0 0 0 0 0 0 0 0 0 0 0 0 0 0 0 0 0 0 -1 0 0 0 0 0 0 0 0 0 0 0 0 0 0 0 0 0 0 0 0 0 0 0 0 0 0 0 0 -1 0 0 0 0 0 0 0 0 0 0 2 0 0 0 0 0 0 0 0 0 0 0 0 0 0 2 0 0 0 0 0 0 0 0 0 0 0 0 0 0 -2 0 0 0 0 0 0 0 0 0 0 0 0 0 0 0 0 0 0 0 0 0 0 -4 0 0 0 0 0 0 0 0 0 -14 0 0 0 0 0 0 0 0 0 0 0 0 0 0 0 0 0 0 0 0 0 0 0 0 0 0 0 0 0 0 3 0 0 0 0 0 0 0 0 0 -8 0 0 0 0 0 0 0 0 2 0 0 0 0 0 0 -2 -2 2 0 0 0 2 0 20 0 0 0 0 0 0 0 0 0 0 0 0 0 0 0 0 0 0 0 0 0 0 0 0 0 0 0 0 0 0 0 0 0 0 0 0 0 0 0 0 0 0 0 0 0 19 0 0 0 0 0 0 19 0 0 0 0 0 0 0 0 0 0 0 -14 0 0 0 0 0 0 0 0 0 0 0 0 0 0 -14 -2 0 0 0 0 0 0 0 0 0 0 0 0 -1 0 0 2 0 0 0 0 0 0 0 0 0 0 0 0 0 0 0 0 0 0 -2 -1 0 4 4 0 0 0 0 0 2 -2 0 -2 -16 -4 0 0 0 0 0 0 0 0 0 0 0 0 0 0 0 0 0 0 0 0 0 0 -5 0 0 14 0 0 0 0 14 2 0 0 0 0 0 0 0 0 0 0 0 0 0 0 0 0 0 0 0 0 0 0 0 0 0 0 0 0 0 0 0 0 0 0 0 0 0 0 0 0 0 0 0 0 0 0 0 0 0 0 0 0 0 0 0 
#OUTPUT END
Model has been successfully processed
